
Log started (V11.0.0) Sun Apr 13 14:06:36 2008

Tried aggregator 1 time.
Reduced MIP has 240 rows, 8001 columns, and 16040 nonzeros.
Presolve time =    0.06 sec.
Clique table members: 200.
MIP emphasis: balance optimality and feasibility.
MIP search method: dynamic search.
Parallel mode: none, using 1 thread.
Root relaxation solution time =    0.23 sec.

        Nodes                                         Cuts/
   Node  Left     Objective  IInf  Best Integer     Best Node    ItCnt     Gap

*     0+    0                        10098.0000       16.2364     1013   99.84%
*     0+    0                           25.0000       16.2364     1013   35.05%
      0     0       17.0000    59       25.0000      Fract: 6     1021   32.00%
*     0+    0                           24.0000       17.0000     1021   29.17%
      0     0       17.0000    58       24.0000   Impl Bds: 1     1022   29.17%
*     0+    0                           23.0000       17.0000     1022   26.09%
*     0+    0                           22.0000       17.0000     1022   22.73%
*     0+    0                           21.0000       17.0000     1022   19.05%
*     0+    0                           19.0000       17.0000     1022   10.53%

Repeating presolve.
Tried aggregator 1 time.
MIP Presolve eliminated 0 rows and 6587 columns.
Aggregator did 1 substitutions.
Reduced MIP has 239 rows, 1413 columns, and 2864 nonzeros.
Tried aggregator 1 time.
Represolve time =    0.06 sec.
Clique table members: 618.
MIP emphasis: balance optimality and feasibility.
MIP search method: dynamic search.
Parallel mode: none, using 1 thread.
Root relaxation solution time =    0.05 sec.

        Nodes                                         Cuts/
   Node  Left     Objective  IInf  Best Integer     Best Node    ItCnt     Gap

      0     0       17.0000    73       19.0000       17.0000      364   10.53%
      0     2       17.0000    73       19.0000       17.0000      364   10.53%
    100    79       18.0000    75       19.0000       17.0000     4115   10.53%
    200   157       17.0000   102       19.0000       17.0000    10928   10.53%
*   240+   49                           18.0000       17.0000    12930    5.56%
    300    73       17.0000   166       18.0000       17.0000    28008    5.56%
    400    15    infeasible             18.0000       17.0000   111126    5.56%

Cover cuts applied:  466
Gomory fractional cuts applied:  2

Solution pool: 8 solutions saved.

MIP - Integer optimal solution:  Objective = 1.8000000000e+001
Solution time =   27.78 sec.  Iterations = 129091  Nodes = 416


Incumbent solution
Variable Name           Solution Value
Cmax                         18.000000
X_1_38                        1.000000
X_2_3                         1.000000
X_3_35                        1.000000
X_4_2                         1.000000
X_5_2                         1.000000
X_6_25                        1.000000
X_7_4                         1.000000
X_8_21                        1.000000
X_9_7                         1.000000
X_10_2                        1.000000
X_11_37                       1.000000
X_12_9                        1.000000
X_13_34                       1.000000
X_14_34                       1.000000
X_15_7                        1.000000
X_16_18                       1.000000
X_17_24                       1.000000
X_18_9                        1.000000
X_19_8                        1.000000
X_20_16                       1.000000
X_21_18                       1.000000
X_22_32                       1.000000
X_23_8                        1.000000
X_24_11                       1.000000
X_25_36                       1.000000
X_26_27                       1.000000
X_27_14                       1.000000
X_28_29                       1.000000
X_29_26                       1.000000
X_30_3                        1.000000
X_31_29                       1.000000
X_32_8                        1.000000
X_33_28                       1.000000
X_34_33                       1.000000
X_35_22                       1.000000
X_36_36                       1.000000
X_37_35                       1.000000
X_38_10                       1.000000
X_39_18                       1.000000
X_40_28                       1.000000
X_41_20                       1.000000
X_42_7                        1.000000
X_43_37                       1.000000
X_44_12                       1.000000
X_45_37                       1.000000
X_46_17                       1.000000
X_47_32                       1.000000
X_48_4                        1.000000
X_49_20                       1.000000
X_50_25                       1.000000
X_51_21                       1.000000
X_52_7                        1.000000
X_53_40                       1.000000
X_54_22                       1.000000
X_55_11                       1.000000
X_56_23                       1.000000
X_57_5                        1.000000
X_58_17                       1.000000
X_59_39                       1.000000
X_60_17                       1.000000
X_61_19                       1.000000
X_62_30                       1.000000
X_63_15                       1.000000
X_64_20                       1.000000
X_65_9                        1.000000
X_66_3                        1.000000
X_67_40                       1.000000
X_68_36                       1.000000
X_69_22                       1.000000
X_70_9                        1.000000
X_71_28                       1.000000
X_72_13                       1.000000
X_73_13                       1.000000
X_74_12                       1.000000
X_75_5                        1.000000
X_76_1                        1.000000
X_77_28                       1.000000
X_78_33                       1.000000
X_79_15                       1.000000
X_80_12                       1.000000
X_81_23                       1.000000
X_82_21                       1.000000
X_83_22                       1.000000
X_84_37                       1.000000
X_85_34                       1.000000
X_86_30                       1.000000
X_87_14                       1.000000
X_88_4                        1.000000
X_89_35                       1.000000
X_90_7                        1.000000
X_91_32                       1.000000
X_92_5                        1.000000
X_93_12                       1.000000
X_94_38                       1.000000
X_95_19                       1.000000
X_96_34                       1.000000
X_97_11                       1.000000
X_98_20                       1.000000
X_99_27                       1.000000
X_100_39                      1.000000
X_101_1                       1.000000
X_102_30                      1.000000
X_103_31                      1.000000
X_104_27                      1.000000
X_105_16                      1.000000
X_106_1                       1.000000
X_107_25                      1.000000
X_108_10                      1.000000
X_109_40                      1.000000
X_110_5                       1.000000
X_111_28                      1.000000
X_112_35                      1.000000
X_113_27                      1.000000
X_114_16                      1.000000
X_115_20                      1.000000
X_116_14                      1.000000
X_117_27                      1.000000
X_118_1                       1.000000
X_119_22                      1.000000
X_120_14                      1.000000
X_121_33                      1.000000
X_122_29                      1.000000
X_123_9                       1.000000
X_124_25                      1.000000
X_125_3                       1.000000
X_126_20                      1.000000
X_127_7                       1.000000
X_128_11                      1.000000
X_129_24                      1.000000
X_130_23                      1.000000
X_131_11                      1.000000
X_132_32                      1.000000
X_133_23                      1.000000
X_134_1                       1.000000
X_135_21                      1.000000
X_136_18                      1.000000
X_137_25                      1.000000
X_138_38                      1.000000
X_139_1                       1.000000
X_140_2                       1.000000
X_141_4                       1.000000
X_142_18                      1.000000
X_143_31                      1.000000
X_144_28                      1.000000
X_145_23                      1.000000
X_146_15                      1.000000
X_147_15                      1.000000
X_148_23                      1.000000
X_149_12                      1.000000
X_150_32                      1.000000
X_151_6                       1.000000
X_152_8                       1.000000
X_153_36                      1.000000
X_154_33                      1.000000
X_155_28                      1.000000
X_156_20                      1.000000
X_157_5                       1.000000
X_158_12                      1.000000
X_159_8                       1.000000
X_160_40                      1.000000
X_161_16                      1.000000
X_162_2                       1.000000
X_163_37                      1.000000
X_164_35                      1.000000
X_165_38                      1.000000
X_166_33                      1.000000
X_167_38                      1.000000
X_168_21                      1.000000
X_169_9                       1.000000
X_170_15                      1.000000
X_171_38                      1.000000
X_172_29                      1.000000
X_173_39                      1.000000
X_174_24                      1.000000
X_175_17                      1.000000
X_176_8                       1.000000
X_177_2                       1.000000
X_178_16                      1.000000
X_179_3                       1.000000
X_180_24                      1.000000
X_181_26                      1.000000
X_182_38                      1.000000
X_183_39                      1.000000
X_184_22                      1.000000
X_185_1                       1.000000
X_186_12                      1.000000
X_187_16                      1.000000
X_188_30                      1.000000
X_189_18                      1.000000
X_190_21                      1.000000
X_191_16                      1.000000
X_192_6                       1.000000
X_193_19                      1.000000
X_194_20                      1.000000
X_195_27                      1.000000
X_196_2                       1.000000
X_197_25                      1.000000
X_198_13                      1.000000
X_199_13                      1.000000
X_200_9                       1.000000
All other variables in the range 1-8001 are 0.
